TCS_Benchmarks/redos_fix/regexlib1_output_distinct_1550_1549_76_0.txt
([A-Z]+\.|of|the|von|der|van|de|bin|and|on)+([A-Z]+\.|of|the|von|der|van|de|bin|and|([A-Za-z]+-?)?[A-Z][A-Za-z]+)+
([A-Z]+\.|of|the|von|der|van|de|bin|and|([A-Za-z]+-?)?[A-Z][A-Za-z]+)+
o.*